;  time  = 548.3761141300201
;  terms = 55
;  score = 0.6493927667329186
(set-logic QF_FP)
(declare-const x0 (_ FloatingPoint 8 24))
(declare-const x1 (_ FloatingPoint 8 24))
(declare-const x2 (_ FloatingPoint 8 24))
(declare-const x3 (_ FloatingPoint 8 24))
(declare-const x4 (_ FloatingPoint 8 24))
(declare-const x5 (_ FloatingPoint 8 24))
(declare-const x6 (_ FloatingPoint 8 24))
(declare-const x7 (_ FloatingPoint 8 24))
(declare-const x8 (_ FloatingPoint 8 24))
(declare-const x9 (_ FloatingPoint 8 24))
(declare-const x10 (_ FloatingPoint 8 24))
(declare-const x11 (_ FloatingPoint 8 24))
(declare-const x12 (_ FloatingPoint 8 24))
(declare-const x13 (_ FloatingPoint 8 24))
(declare-const x14 (_ FloatingPoint 8 24))
(assert (fp.isSubnormal (fp.sub RNE (fp.mul RNE (fp.add RNE (fp.mul RNE (fp.mul RNE (fp.neg (fp.mul RNE (fp.sub RNE x2 x14) x5)) (fp.add RNE (fp.neg (fp.abs x13)) x6)) (fp.abs (fp.sub RNE (fp.add RNE (fp.neg (fp.add RNE x11 x2)) x2) (fp.add RNE (fp.add RNE x10 (fp.mul RNE x4 x10)) (fp.add RNE (fp.add RNE x0 x5) (fp.abs x6)))))) (fp.neg (fp.mul RNE (fp.add RNE x2 (fp.mul RNE (fp.mul RNE (fp.add RNE x5 x2) (fp.abs x3)) x2)) (fp.sub RNE (fp.neg (fp.mul RNE (fp.add RNE x1 x6) x11)) (fp.add RNE (fp.sub RNE (fp.neg x13) x2) (fp.neg x6)))))) (fp.mul RNE (fp.mul RNE (fp.mul RNE (fp.neg (fp.abs (fp.mul RNE x3 (fp.abs x5)))) (fp.add RNE (fp.abs (fp.neg (fp.abs x14))) (fp.add RNE (fp.sub RNE x3 x9) (fp.abs x0)))) (fp.neg x6)) (fp.mul RNE (fp.abs (fp.abs (fp.abs (fp.sub RNE x3 (fp.mul RNE x0 x4))))) (fp.abs (fp.abs (fp.abs x11)))))) x5)))
(check-sat)